TIME 50
6060
11849
5495
11849
6555
11849
5763
11849
5195
11849
5808
11849
5932
11849
5572
11849
6668
11849
5226
11849
TIME 100
6793
11849
5493
11849
6245
11849
5233
11849
6110
11849
5989
11849
6972
11849
6744
11849
5290
11849
6137
11849
TIME 150
5891
11849
7356
11849
5889
11849
6341
11849
6991
11849
6497
11849
6974
11849
7403
11849
7255
11849
6625
11849
TIME 200
6631
11849
6307
11849
7511
11849
6533
11849
6282
11849
7564
11849
6994
11849
6157
11849
6746
11849
6795
11849
TIME 250
6820
11849
6391
11849
6858
11849
7190
11849
7495
11849
7272
11849
6826
11849
6305
11849
4393
11849
6977
11849
TIME 300
